100
128
3
9
12
13
15
3
35
33
7
10
61
17
10
56
42
61
24
54
52
20
25
23
18
26
32
46
23
60
22
44
34
46
8
58
64
8
35
31
64
64
61
32
17
64
64
1
25
17
36
58
26
54
53
46
43
21
19
33
47
29
43
61
24
23
37
47
21
34
51
20
29
10
29
25
32
37
8
62
23
21
28
64
36
58
47
23
39
40
46
64
24
40
40
50
42
36
64
63
50
38